c Sudoku solution
p cnf 729 0
154 0
193 0
249 0
288 0
334 0
343 0
381 0
399 0
416 0
469 0
497 0
538 0
541 0
633 0
647 0
671 0
685 0
724 0
811 0
836 0
863 0
875 0
295 0
274 0
917 0
527 0
935 0
972 0
182 0
983 0
713 0
212 0
223 0
484 0
362 0
326 0
377 0
176 0
592 0
453 0
478 0
573 0
696 0
589 0
779 0
887 0
786 0
732 0
745 0
431 0
121 0
237 0
139 0
167 0
619 0
514 0
425 0
622 0
442 0
658 0
664 0
852 0
959 0
829 0
928 0
148 0
355 0
115 0
318 0
946 0
844 0
961 0
757 0
768 0
791 0
994 0
898 0
251 0
266 0
556 0
565 0
